3164710
51,57,96,103,88,90,65,36,37,40,85,68,13,38,69,26,25,89,63,21,16,98,92,20,47,79,73,55,102,29,43,2,82,81,23,14,52,53,99,77,105,104,72,107,70,35,27,49,12,67,39,7,6,95,59,54,46,11,41,32,75,17,64,87,18,61,86,101,10,108,9,8,56,74,71,30,48,76,83,80,1,45,58,50,97,34,22,3,91,94,31,93,24,62,33,0,4,100,84,19,42,60,66,78,5,15,28,106,44
